icsd_044289.cif
1.0
  4.11 0.0 0.0
  2.51664917225e-16 4.11 0.0
  2.51664917225e-16 2.51664917225e-16 4.11
 Cs  Cl 
1 1 
direct
    0.0000000000000000   0.0000000000000000   0.0000000000000000
    0.5000000000000001   0.5000000000000001   0.5000000000000001
