supercell of icsd_044289.cif
1.0
  8.22 0.0 0.0
  0.0 8.22 0.0
  0.0 0.0 8.22
 Cs  Cl 
8 8 
direct
    0.0000000000000000   0.0000000000000000   0.0000000000000000
    0.0000000000000000   0.0000000000000000   0.5000000000000001
    0.0000000000000000   0.5000000000000001   0.0000000000000000
    0.0000000000000001   0.5000000000000001   0.5000000000000001
    0.5000000000000001   0.0000000000000000   0.0000000000000000
    0.5000000000000001   0.0000000000000000   0.5000000000000001
    0.5000000000000001   0.5000000000000001   0.0000000000000000
    0.5000000000000001   0.5000000000000001   0.5000000000000001
    0.2500000000000001   0.2500000000000001   0.2500000000000001
    0.2500000000000001   0.2500000000000001   0.7500000000000001
    0.2500000000000001   0.7500000000000001   0.2500000000000001
    0.2500000000000001   0.7500000000000001   0.7500000000000001
    0.7500000000000001   0.2500000000000001   0.2500000000000001
    0.7500000000000001   0.2500000000000001   0.7500000000000001
    0.7500000000000001   0.7500000000000001   0.2500000000000001
    0.7500000000000001   0.7500000000000001   0.7500000000000001
