icsd_028859.cif
1.0
  4.4408920985e-16 1.78339 1.78339
  1.78339 2.22044604925e-16 1.78339
  1.78339 1.78339 0.0
 C 
2 
direct
    0.2499999999999999   0.2499999999999998   0.2499999999999999
    0.0000000000000000   0.0000000000000000   0.0000000000000000
