icsd_182359.cif
1.0
  2.579106159e-16 2.106 2.106
  2.106 1.2895530795e-16 2.106
  2.106 2.106 0.0
 Zn  O 
1 1 
direct
    0.0000000000000000   0.0000000000000000   0.0000000000000000
    0.4999999999999997   0.5000000000000000   0.5000000000000004
