icsd_076641.cif
1.0
  3.2495 0.0 0.0
  -1.62475 2.8141495496 0.0
  3.18830670924e-16 5.52230921052e-16 5.2069
 Zn  O 
2 2 
direct
    0.6667000000000002   0.3333999999999999   0.5000000000000000
    0.3332999999999999   0.6666000000000000   0.0000000000000000
    0.6667000000000001   0.3333999999999999   0.8750000000000001
    0.3333000000000000   0.6666000000000000   0.3750000000000000
