unknown system                          
   1.00000000000000     
     2.9375166970100000   -0.0000020948829716    0.0000000000000000
    -1.4687603383200001    2.5439658101800000    0.0000000000000000
     0.0000000000000000    0.0000000000000000    4.6199095945400002
   Ti
     2
Direct
  0.0000005593294219  0.9999984758285905  0.0000000000000000
  0.6666694406705815  0.3333315241714061  0.5000000000000000
 
  0.00000000E+00  0.00000000E+00  0.00000000E+00
  0.00000000E+00  0.00000000E+00  0.00000000E+00
