unknown system                          
   1.00000000000000     
     0.0000002933901315    2.1889255457700001    2.1889254678499999
     2.1889256004700002    0.0000002325537416    2.1889255250600002
     2.1889256152500001    2.1889256213900001    0.0000002177897377
   Si   C 
     1     1
Direct
  0.9999999952586833  0.9999999772143298  0.0000000000454321
  0.7500000047413167  0.7500000227856702  0.7499999999545679
 
  0.00000000E+00  0.00000000E+00  0.00000000E+00
  0.00000000E+00  0.00000000E+00  0.00000000E+00
