unknown system                          
   1.00000000000000     
     0.0000000499443053    2.0285040616000001    2.0285045749699999
     2.0285042902199999    0.0000000105018544    2.0285046144000001
     2.0285042591500000    2.0285040699699999    0.0000000415723244
   Si   C 
     1     1
Direct
  0.0000000011825776  0.0000000012471872  0.0000000002920189
  0.4999999988174224  0.4999999987528128  0.4999999997079811
 
  0.00000000E+00  0.00000000E+00  0.00000000E+00
  0.00000000E+00  0.00000000E+00  0.00000000E+00
