icsd_052274.cif
1.0
  7.095 0.0 0.0
  4.34443451998e-16 7.095 0.0
  4.34443451998e-16 4.34443451998e-16 7.095
 Cs  Cl 
4 4 
direct
    0.0000000000000000   0.0000000000000000   0.0000000000000000
    0.0000000000000000   0.4999999999999999   0.4999999999999999
    0.4999999999999999   0.0000000000000000   0.4999999999999999
    0.4999999999999999   0.4999999999999999   0.0000000000000000
    0.4999999999999998   0.4999999999999999   0.4999999999999999
    0.4999999999999999   0.0000000000000000   0.0000000000000000
    0.0000000000000000   0.4999999999999999   0.0000000000000000
    0.0000000000000000   0.0000000000000000   0.4999999999999999
